17	4
28	33	44	35	
0	0	0	0	0	3	2	3	4	
5	8	1	10	1	3	5	6	12	
8	5	10	6	8	3	5	7	17	
2	1	6	2	3	3	13	14	17	
8	9	9	1	3	3	10	11	17	
150	1	2	8	1	3	10	17	17	
50	9	7	2	6	3	8	9	17	
50	1	6	1	9	3	12	16	17	
75	2	9	4	8	1	17	
100	9	1	4	3	3	16	17	17	
25	1	9	8	1	3	13	15	17	
225	6	5	2	9	3	13	15	17	
4	4	3	3	7	2	17	17	
8	8	6	2	4	2	17	17	
9	5	6	9	10	3	17	17	17	
7	5	5	10	1	3	17	17	17	
0	0	0	0	0	0	
